outputs/case_354.model.txt
net_worth = -10
severely_insufficient_measures_executed = True
net_worth_ratio = 3/2
improvement_plan_executed = False
significantly_insufficient_measures_executed = False
capital_adequacy_ratio = 45
improvement_plan_submitted = False
capital_insufficient_measures_ok = False
capital_level_lowest = 4
penalty = False
capital_insufficient_measures_submitted = False
capital_insufficient_measures_executed = False
capital_severely_insufficient_measures_ok = True
capital_level = 4
capital_significantly_insufficient_measures_ok = False